12 24 6 10
20 2 14 6 5 12 1 12 11 11 20 17 7 18 4 5 3 5 6 2 18 15 12 4 
5.11 3.65 6.84 6.83 3.19 5.97 0.36 3.28 7.05 1.23 7.02 4.38 4.35 7.86 4.59 3.4 3.16 4.17 6.16 4.87 4.31 1.16 2.62 3.42 
1.81 5.92 1.24 3.79 6.5 6.96 4.13 7.62 6.59 6.58 2.11 0.31 6.64 3.59 2.57 0.6 3.25 4.57 6.82 0.84 7.79 3.89 3.38 0.21 
2.57 5.02 3.41 0.12 4.82 4.53 2.53 5.54 5.51 7.97 2.6 0.23 6.68 0.65 2.27 6.12 3.9 6.05 1.37 2.64 6.89 1.38 7.41 7.89 
5.53 3.94 2.57 5.37 7.05 5.34 6.1 6.18 6.31 7.09 2.77 0.12 5.4 0.12 1.47 2.97 3.93 3.09 0.17 2.61 7.38 4.3 2.41 1.85 
7.27 3.48 6.18 5 3.41 6.66 4.14 4.73 3.21 5.32 3.07 2.87 7.36 0.62 2 3.82 7.25 3.56 5.31 4.83 5.94 7.18 7.31 0.38 
4.48 7.04 3.01 6.39 1.01 7.77 5.24 6.6 5.48 3.58 2.7 5.12 5.23 1.48 5.44 0.63 4.66 6.13 0.35 6.11 0.39 3.71 2.06 3.65 
4 4 4 4 4 4 4 4 4 4 4 4 4 4 4 4 4 4 4 4 4 4 4 4 
5.28 4.99 3.41 4.46 1.52 4.24 2.19 1.99 1.38 5.27 0.33 5.1 2.42 0.86 6.53 4.65 1.28 4.28 4.41 7.99 4.11 3.65 5.39 7.71 
2.31 3.61 4.46 5.07 1.03 5.93 4.74 6.87 5.04 3.82 2.35 1.25 5.77 2.73 7.93 4.63 1.1 3.2 1.48 4.94 1.05 2.71 2.56 2.04 
0.36 3.74 3.99 2.91 4.58 0.65 1.63 0.18 6.66 6.42 5.36 0.01 5.15 1.14 2.51 1.74 4.49 6.14 5.9 4.9 7.16 4.79 0.99 0.38 
2.26 7.52 5.77 0.22 6.48 0.07 3.52 7.41 1.24 0.25 3.42 7.58 2.89 4.23 6.77 0.88 2.68 6.58 2.23 2.01 6.32 0.7 1.48 1.59 
3.78 5.37 5.6 7.82 2.55 4.94 2.95 3.77 6.4 6.84 4.18 3.52 4.24 2.85 7.4 3.56 4.89 4.52 3.52 6.95 3.7 2.64 6.93 0.61 
1 1 1 1 1 1 1 1 1 1 1 1 1 1 1 1 1 1 1 1 1 1 1 1 
1 1 1 1 1 1 1 1 1 1 1 1 1 1 1 1 1 1 1 1 1 1 1 1 
1 1 1 1 1 1 1 1 1 1 1 1 1 1 1 1 1 1 1 1 1 1 1 1 
1 1 1 1 1 1 1 1 1 1 1 1 1 1 1 1 1 1 1 1 1 1 1 1 
1 1 1 1 1 1 1 1 1 1 1 1 1 1 1 1 1 1 1 1 1 1 1 1 
1 1 1 1 1 1 1 1 1 1 1 1 1 1 1 1 1 1 1 1 1 1 1 1 
1 1 1 1 1 1 1 1 1 1 1 1 1 1 1 1 1 1 1 1 1 1 1 1 
1 1 1 1 1 1 1 1 1 1 1 1 1 1 1 1 1 1 1 1 1 1 1 1 
1 1 1 1 1 1 1 1 1 1 1 1 1 1 1 1 1 1 1 1 1 1 1 1 
1 1 1 1 1 1 1 1 1 1 1 1 1 1 1 1 1 1 1 1 1 1 1 1 
1 1 1 1 1 1 1 1 1 1 1 1 1 1 1 1 1 1 1 1 1 1 1 1 
1 1 1 1 1 1 1 1 1 1 1 1 1 1 1 1 1 1 1 1 1 1 1 1 
0.01 0.01 0.01 0.01 0.01 0.01 0.01 0.01 0.01 0.01 0.01 0.01 0.01 0.01 0.01 0.01 0.01 0.01 0.01 0.01 0.01 0.01 0.01 0.01 
0.02 0.02 0.02 0.02 0.02 0.02 0.02 0.02 0.02 0.02 0.02 0.02 0.02 0.02 0.02 0.02 0.02 0.02 0.02 0.02 0.02 0.02 0.02 0.02 
0.03 0.03 0.03 0.03 0.03 0.03 0.03 0.03 0.03 0.03 0.03 0.03 0.03 0.03 0.03 0.03 0.03 0.03 0.03 0.03 0.03 0.03 0.03 0.03 
0.04 0.04 0.04 0.04 0.04 0.04 0.04 0.04 0.04 0.04 0.04 0.04 0.04 0.04 0.04 0.04 0.04 0.04 0.04 0.04 0.04 0.04 0.04 0.04 
0.05 0.05 0.05 0.05 0.05 0.05 0.05 0.05 0.05 0.05 0.05 0.05 0.05 0.05 0.05 0.05 0.05 0.05 0.05 0.05 0.05 0.05 0.05 0.05 
0.06 0.06 0.06 0.06 0.06 0.06 0.06 0.06 0.06 0.06 0.06 0.06 0.06 0.06 0.06 0.06 0.06 0.06 0.06 0.06 0.06 0.06 0.06 0.06 
0.07 0.07 0.07 0.07 0.07 0.07 0.07 0.07 0.07 0.07 0.07 0.07 0.07 0.07 0.07 0.07 0.07 0.07 0.07 0.07 0.07 0.07 0.07 0.07 
0.2 0.2 0.2 0.2 0.2 0.2 0.2 0.2 0.2 0.2 0.2 0.2 0.2 0.2 0.2 0.2 0.2 0.2 0.2 0.2 0.2 0.2 0.2 0.2 
0.4 0.4 0.4 0.4 0.4 0.4 0.4 0.4 0.4 0.4 0.4 0.4 0.4 0.4 0.4 0.4 0.4 0.4 0.4 0.4 0.4 0.4 0.4 0.4 
0.6 0.6 0.6 0.6 0.6 0.6 0.6 0.6 0.6 0.6 0.6 0.6 0.6 0.6 0.6 0.6 0.6 0.6 0.6 0.6 0.6 0.6 0.6 0.6 
0.8 0.8 0.8 0.8 0.8 0.8 0.8 0.8 0.8 0.8 0.8 0.8 0.8 0.8 0.8 0.8 0.8 0.8 0.8 0.8 0.8 0.8 0.8 0.8 
1 1 1 1 1 1 1 1 1 1 1 1 1 1 1 1 1 1 1 1 1 1 1 1 
